c Generated map
c Size: 9 * 9, weights in range: 1 to 10, walls: True, with ratio 0.05
c dim 2 of 8
c
p sp 81 130
c graph contains 81 nodes and 130 arcs
c
a 1 10 3
a 10 1 3
a 1 2 8
a 2 1 8
a 2 11 6
a 11 2 6
a 4 13 5
a 13 4 5
a 4 5 3
a 5 4 3
a 5 6 3
a 6 5 3
a 6 15 1
a 15 6 1
a 6 7 5
a 7 6 5
a 7 16 6
a 16 7 6
a 7 8 7
a 8 7 7
a 8 17 4
a 17 8 4
a 8 9 9
a 9 8 9
a 9 18 4
a 18 9 4
a 10 19 1
a 19 10 1
a 10 11 4
a 11 10 4
a 11 20 4
a 20 11 4
a 11 12 7
a 12 11 7
a 12 21 7
a 21 12 7
a 12 13 9
a 13 12 9
a 13 22 2
a 22 13 2
a 15 24 7
a 24 15 7
a 15 16 10
a 16 15 10
a 16 25 8
a 25 16 8
a 16 17 4
a 17 16 4
a 17 26 5
a 26 17 5
a 17 18 9
a 18 17 9
a 18 27 6
a 27 18 6
a 19 28 6
a 28 19 6
a 19 20 1
a 20 19 1
a 20 29 4
a 29 20 4
a 20 21 3
a 21 20 3
a 21 30 6
a 30 21 6
a 21 22 5
a 22 21 5
a 22 31 10
a 31 22 10
a 22 23 2
a 23 22 2
a 23 32 8
a 32 23 8
a 23 24 8
a 24 23 8
a 24 33 5
a 33 24 5
a 24 25 8
a 25 24 8
a 25 34 9
a 34 25 9
a 25 26 2
a 26 25 2
a 26 35 10
a 35 26 10
a 26 27 3
a 27 26 3
a 27 36 2
a 36 27 2
a 28 37 5
a 37 28 5
a 28 29 2
a 29 28 2
a 29 38 6
a 38 29 6
a 29 30 6
a 30 29 6
a 30 39 9
a 39 30 9
a 30 31 3
a 31 30 3
a 31 40 7
a 40 31 7
a 31 32 5
a 32 31 5
a 32 41 2
a 41 32 2
a 32 33 7
a 33 32 7
a 33 42 7
a 42 33 7
a 33 34 8
a 34 33 8
a 34 43 6
a 43 34 6
a 34 35 6
a 35 34 6
a 35 44 3
a 44 35 3
a 35 36 10
a 36 35 10
a 36 45 9
a 45 36 9
a 37 46 4
a 46 37 4
a 37 38 6
a 38 37 6
a 38 47 9
a 47 38 9
a 38 39 6
a 39 38 6
a 39 48 2
a 48 39 2
a 39 40 4
a 40 39 4
a 40 49 2
a 49 40 2
a 40 41 9
a 41 40 9
a 41 50 1
a 50 41 1
a 41 42 5
a 42 41 5
a 42 51 5
a 51 42 5
a 42 43 2
a 43 42 2
a 43 52 6
a 52 43 6
a 43 44 10
a 44 43 10
a 44 53 9
a 53 44 9
a 44 45 3
a 45 44 3
a 45 54 4
a 54 45 4
a 46 55 2
a 55 46 2
a 46 47 9
a 47 46 9
a 47 56 9
a 56 47 9
a 47 48 7
a 48 47 7
a 48 57 9
a 57 48 9
a 48 49 10
a 49 48 10
a 49 58 4
a 58 49 4
a 49 50 6
a 50 49 6
a 50 59 6
a 59 50 6
a 50 51 1
a 51 50 1
a 51 60 1
a 60 51 1
a 51 52 1
a 52 51 1
a 52 53 1
a 53 52 1
a 53 62 8
a 62 53 8
a 53 54 5
a 54 53 5
a 54 63 10
a 63 54 10
a 55 64 2
a 64 55 2
a 55 56 9
a 56 55 9
a 56 65 4
a 65 56 4
a 56 57 10
a 57 56 10
a 57 66 9
a 66 57 9
a 57 58 8
a 58 57 8
a 58 67 8
a 67 58 8
a 58 59 2
a 59 58 2
a 59 68 6
a 68 59 6
a 59 60 5
a 60 59 5
a 60 69 10
a 69 60 10
a 62 71 6
a 71 62 6
a 62 63 3
a 63 62 3
a 63 72 7
a 72 63 7
a 64 73 6
a 73 64 6
a 64 65 3
a 65 64 3
a 65 74 1
a 74 65 1
a 65 66 7
a 66 65 7
a 66 75 3
a 75 66 3
a 66 67 2
a 67 66 2
a 67 76 4
a 76 67 4
a 67 68 9
a 68 67 9
a 68 69 1
a 69 68 1
a 69 78 10
a 78 69 10
a 69 70 2
a 70 69 2
a 70 79 4
a 79 70 4
a 70 71 2
a 71 70 2
a 71 80 8
a 80 71 8
a 71 72 8
a 72 71 8
a 72 81 5
a 81 72 5
a 73 74 2
a 74 73 2
a 74 75 1
a 75 74 1
a 75 76 7
a 76 75 7
a 78 79 6
a 79 78 6
a 79 80 2
a 80 79 2
a 80 81 2
a 81 80 2
